
******************************************************************************
This program contains Ipopt, a library for large-scale nonlinear optimization.
 Ipopt is released as open source code under the Eclipse Public License (EPL).
         For more information visit https://github.com/coin-or/Ipopt
******************************************************************************

This is Ipopt version 3.14.17, running with linear solver MUMPS 5.7.3.

Number of nonzeros in equality constraint Jacobian...:        0
Number of nonzeros in inequality constraint Jacobian.:      810
Number of nonzeros in Lagrangian Hessian.............:        0

Total number of variables............................:       18
                     variables with only lower bounds:        0
                variables with lower and upper bounds:       18
                     variables with only upper bounds:        0
Total number of equality constraints.................:        0
Total number of inequality constraints...............:       45
        inequality constraints with only lower bounds:        0
   inequality constraints with lower and upper bounds:        0
        inequality constraints with only upper bounds:       45

iter    objective    inf_pr   inf_du lg(mu)  ||d||  lg(rg) alpha_du alpha_pr  ls
   0 -4.2543258e+03 0.00e+00 1.87e+00   0.0 0.00e+00    -  0.00e+00 0.00e+00   0
   1 -4.2852608e+03 0.00e+00 2.96e+00   0.8 6.12e+00    -  9.91e-01 1.00e+00f  1
   2 -4.5818627e+03 0.00e+00 2.76e+00   0.6 1.89e+02    -  8.03e-01 1.00e+00f  1
   3 -4.4610138e+03 0.00e+00 4.36e+00  -5.4 2.85e+02    -  3.67e-01 6.04e-01H  1
   4 -4.8471556e+03 1.26e+00 2.24e+00   0.0 7.53e+01    -  1.00e+00 8.11e-01f  1
   5 -4.9108892e+03 9.23e-01 2.67e+00   0.0 1.00e+02    -  3.12e-01 3.88e-01f  1
   6 -4.9535624e+03 6.73e-02 6.48e-01  -0.8 2.73e+01    -  9.99e-01 9.21e-01f  1
   7 -4.9751127e+03 5.94e-02 4.92e-01  -2.0 2.40e+01    -  9.94e-01 7.52e-01f  1
   8 -4.9773731e+03 1.47e-01 6.11e-01  -2.1 3.37e+01    -  9.99e-01 9.23e-02f  1
   9 -4.9897454e+03 1.73e-01 9.71e-01  -2.7 3.19e+01    -  9.99e-01 1.00e+00f  1
iter    objective    inf_pr   inf_du lg(mu)  ||d||  lg(rg) alpha_du alpha_pr  ls
  10 -4.9959161e+03 2.21e-01 8.61e-01  -3.0 2.28e+02    -  1.00e+00 1.10e-01f  3
  11 -5.0143219e+03 2.54e-02 5.99e-01  -3.1 1.68e+01    -  1.00e+00 1.00e+00f  1
  12 -5.0273943e+03 5.13e-02 3.69e-01  -3.8 1.92e+01    -  1.00e+00 1.00e+00f  1
  13 -5.0279586e+03 4.30e-02 5.55e-01  -4.5 1.32e+01    -  1.00e+00 1.00e+00f  1
  14 -5.0324277e+03 2.47e-02 3.05e-01  -5.1 9.46e+00    -  1.00e+00 1.00e+00f  1
  15 -5.0361420e+03 1.55e-02 4.10e-01  -5.7 6.82e+00    -  1.00e+00 1.00e+00f  1
  16 -5.0332192e+03 1.07e-05 2.17e+00  -5.9 5.94e+01    -  1.00e+00 1.00e+00H  1
  17 -5.0627041e+03 4.84e-01 1.51e+00  -6.2 4.37e+01    -  1.00e+00 1.00e+00f  1
  18 -5.1241054e+03 3.95e-01 1.11e+00  -6.5 2.06e+01    -  1.00e+00 1.00e+00f  1
  19 -4.9304539e+03 2.04e-01 4.14e+00  -4.5 8.84e+01    -  6.99e-01 1.00e+00H  1
iter    objective    inf_pr   inf_du lg(mu)  ||d||  lg(rg) alpha_du alpha_pr  ls
  20 -5.1160723e+03 1.93e+00 1.21e+00  -4.8 6.62e+01    -  2.30e-02 8.29e-01f  1
  21 -4.9364960e+03 1.73e-02 2.88e+00  -4.8 1.07e+02    -  1.00e+00 1.00e+00H  1
  22 -4.9496893e+03 5.88e-02 2.74e+00  -4.8 5.17e+01    -  1.00e+00 4.59e-02f  1
  23 -5.0381600e+03 1.41e-01 1.15e+00  -4.8 3.84e+01    -  1.00e+00 5.14e-01f  1
  24 -5.1351880e+03 3.03e+00 1.41e+00  -4.8 5.89e+01    -  1.00e+00 1.00e+00f  1
  25 -4.9906909e+03 2.71e-02 3.72e+00  -4.9 7.57e+01    -  1.00e+00 9.93e-01H  1
  26 -5.1491961e+03 1.53e+00 8.58e-01  -5.0 6.47e+01    -  1.00e+00 1.00e+00f  1
  27 -5.0947617e+03 5.94e-01 3.06e+00  -5.3 2.72e+01    -  1.00e+00 1.00e+00h  1
  28 -5.1579465e+03 1.87e-01 5.24e-01  -5.4 1.66e+01    -  1.00e+00 1.00e+00f  1
  29 -5.1604447e+03 2.87e-02 2.34e-01  -6.3 6.85e+00    -  1.00e+00 1.00e+00f  1
iter    objective    inf_pr   inf_du lg(mu)  ||d||  lg(rg) alpha_du alpha_pr  ls
  30 -5.1638577e+03 7.22e-03 2.38e-01  -6.1 1.13e+01    -  1.00e+00 1.00e+00f  1
  31 -5.1358220e+03 3.16e-04 1.46e+00  -6.6 3.24e+01    -  9.99e-01 1.00e+00H  1
  32 -5.1662587e+03 3.62e-02 1.89e-01  -7.1 2.47e+01    -  1.00e+00 1.00e+00f  1
  33 -5.1666553e+03 9.14e-04 1.35e-01  -7.6 3.06e+00    -  1.00e+00 1.00e+00h  1
  34 -5.1670451e+03 4.29e-03 1.02e-01  -9.0 4.77e+00    -  1.00e+00 1.00e+00f  1
  35 -5.1673783e+03 4.37e-02 3.22e-01  -9.4 9.87e+00    -  1.00e+00 1.00e+00f  1
  36 -5.1614138e+03 0.00e+00 1.22e+00 -10.2 1.86e+01    -  1.00e+00 1.00e+00H  1
  37 -5.1679321e+03 6.10e-02 2.25e-01 -10.3 1.21e+01    -  1.00e+00 1.00e+00f  1
  38 -5.1675178e+03 7.69e-03 2.79e-01 -11.0 4.37e+00    -  1.00e+00 1.00e+00h  1
  39 -5.1681592e+03 5.52e-03 2.21e-02 -11.0 2.57e+00    -  1.00e+00 1.00e+00f  1
iter    objective    inf_pr   inf_du lg(mu)  ||d||  lg(rg) alpha_du alpha_pr  ls
  40 -5.1681630e+03 6.58e-05 1.61e-02 -11.0 6.20e-01    -  1.00e+00 1.00e+00h  1
  41 -5.1681492e+03 0.00e+00 5.52e-02 -11.0 2.68e+00    -  1.00e+00 1.00e+00H  1
  42 -5.1681710e+03 8.79e-05 4.07e-02 -11.0 1.29e+00    -  1.00e+00 5.00e-01f  2
  43 -5.1681851e+03 4.75e-05 2.17e-02 -11.0 1.27e+00    -  1.00e+00 1.00e+00h  1
  44 -5.1681869e+03 8.31e-05 1.48e-02 -11.0 3.09e-01    -  1.00e+00 1.00e+00h  1
  45 -5.1681756e+03 4.69e-07 4.68e-02 -11.0 9.51e-01    -  1.00e+00 1.00e+00H  1
  46 -5.1681836e+03 5.49e-06 1.81e-02 -11.0 4.90e-01    -  1.00e+00 5.00e-01f  2
  47 -5.1681893e+03 1.60e-04 4.19e-03 -11.0 6.41e-01    -  1.00e+00 1.00e+00h  1
  48 -5.1681874e+03 1.28e-05 1.37e-02 -11.0 1.66e-01    -  1.00e+00 1.00e+00h  1
  49 -5.1681891e+03 5.38e-06 3.32e-04 -11.0 1.54e-01    -  1.00e+00 1.00e+00h  1
iter    objective    inf_pr   inf_du lg(mu)  ||d||  lg(rg) alpha_du alpha_pr  ls
  50 -5.1681891e+03 3.42e-08 7.86e-05 -11.0 5.52e-03    -  1.00e+00 1.00e+00h  1

Number of Iterations....: 50

                                   (scaled)                 (unscaled)
Objective...............:  -5.1681890733374812e+03   -5.1681890733374812e+03
Dual infeasibility......:   7.8598815698346266e-05    7.8598815698346266e-05
Constraint violation....:   3.4159358367323881e-08    3.4159358367323881e-08
Variable bound violation:   0.0000000000000000e+00    0.0000000000000000e+00
Complementarity.........:   9.9999999999998265e-12    9.9999999999998265e-12
Overall NLP error.......:   7.8598815698346266e-05    7.8598815698346266e-05


Number of objective function evaluations             = 75
Number of objective gradient evaluations             = 51
Number of equality constraint evaluations            = 0
Number of inequality constraint evaluations          = 75
Number of equality constraint Jacobian evaluations   = 0
Number of inequality constraint Jacobian evaluations = 51
Number of Lagrangian Hessian evaluations             = 0
Total seconds in IPOPT                               = 4.695

EXIT: Maximum Number of Iterations Exceeded.
